RT is False
Default write of storage_offers_DA.csv just to have a file (but constraint should be inactive)
Reading model...
...model read.
creating competitive generators file...
...competitive generators recorded.
Loading data...
.. day-ahead data with real-time VRE data read.
Compiling instance...
...instance created.
Creating Offer Mitigation (model will solve as dispatch if TRUE)...
NOTE: storage offers will not be mitigated
...storage offer mitigation file created
Converting model to MPEC...
...converted
NOTE: initial MIP solve with only storage competitive to get feasible solution
Solving...

Welcome to IBM(R) ILOG(R) CPLEX(R) Interactive Optimizer 12.9.0.0
  with Simplex, Mixed Integer & Barrier Optimizers
5725-A06 5725-A29 5724-Y48 5724-Y49 5724-Y54 5724-Y55 5655-Y21
Copyright IBM Corp. 1988, 2019.  All Rights Reserved.

Type 'help' for a list of available commands.
Type 'help' followed by a command name for more
information on commands.

CPLEX> Logfile 'cplex.log' closed.
Logfile 'C:\Users\llavin\Desktop\test826\logs\tmpqug1x8iy.cplex.log' open.
CPLEX> New value for parallel optimization mode: -1
CPLEX> New value for emphasis for MIP optimization: 1
CPLEX> New value for mixed integer optimality gap tolerance: 0.01
CPLEX> New value for integrality tolerance: 1e-12
CPLEX> New value for deterministic time limit in ticks: 75000
CPLEX> Problem 'C:\Users\llavin\Desktop\test826\logs\tmpx_51s0zn.pyomo.lp' read.
Read time = 0.23 sec. (13.92 ticks)
CPLEX> Problem name         : C:\Users\llavin\Desktop\test826\logs\tmpx_51s0zn.pyomo.lp
Objective sense      : Maximize
Variables            :   53809  [Nneg: 1,  Box: 22004,  Free: 4464,
                                 Binary: 27340]
Objective nonzeros   :    8974
Linear constraints   :  123253  [Less: 41346,  Greater: 59096,  Equal: 22811]
  Nonzeros           :  293283
  RHS nonzeros       :   67485

Variables            : Min LB: -5000.000        Max UB: 1000000.       
Objective nonzeros   : Min   : 0.008333333      Max   : 753.1500       
Linear constraints   :
  Nonzeros           : Min   : 0.008333333      Max   : 1000000.       
  RHS nonzeros       : Min   : 0.008333333      Max   : 1000000.       
CPLEX> CPXPARAM_Parallel                                -1
CPXPARAM_Emphasis_MIP                            1
CPXPARAM_DetTimeLimit                            75000
CPXPARAM_MIP_Tolerances_MIPGap                   0.01
CPXPARAM_MIP_Tolerances_Integrality              9.9999999999999998e-13
Tried aggregator 4 times.
MIP Presolve eliminated 88705 rows and 18958 columns.
MIP Presolve added 3395 rows and 0 columns.
MIP Presolve modified 24900 coefficients.
Aggregator did 13009 substitutions.
Reduced MIP has 24934 rows, 21283 columns, and 71169 nonzeros.
Reduced MIP has 8402 binaries, 0 generals, 0 SOSs, and 0 indicators.
Presolve time = 0.33 sec. (193.74 ticks)
Probing fixed 372 vars, tightened 4093 bounds.
Probing time = 0.06 sec. (18.91 ticks)
Tried aggregator 2 times.
MIP Presolve eliminated 840 rows and 745 columns.
MIP Presolve modified 3027 coefficients.
Aggregator did 32 substitutions.
Reduced MIP has 24062 rows, 20506 columns, and 68643 nonzeros.
Reduced MIP has 8030 binaries, 0 generals, 0 SOSs, and 0 indicators.
Presolve time = 0.11 sec. (89.85 ticks)
Probing fixed 0 vars, tightened 323 bounds.
Probing time = 0.14 sec. (23.04 ticks)
Clique table members: 44652.
MIP emphasis: integer feasibility.
MIP search method: dynamic search.
Parallel mode: opportunistic, using up to 32 threads.
Root relaxation solution time = 0.44 sec. (648.40 ticks)

        Nodes                                         Cuts/
   Node  Left     Objective  IInf  Best Integer    Best Bound    ItCnt     Gap

      0     0     3226.4629   161                   3226.4629     5456         
      0     0     3221.2206    11                    Cuts: 26     5471         
      0     0     3220.8691    13                     Cuts: 5     5478         
      0     0     3220.8691    14                     Cuts: 3     5480         
      0     5     3194.8470    11                   Covers: 1     5497         
Elapsed time = 3.81 sec. (1700.63 ticks, tree = 0.02 MB, solutions = 0)
*    69+   80                         2987.7606     3207.7249             7.36%
*   344    65      integral     0     3072.0449     3207.7249     5947    4.42%
    684    53        cutoff           3072.0449     3207.7241     9509    4.42%

Cover cuts applied:  10
Implied bound cuts applied:  7
Flow cuts applied:  12
Mixed integer rounding cuts applied:  1
Gomory fractional cuts applied:  5

Root node processing (before b&c):
  Real time             =    2.33 sec. (1662.68 ticks)
Parallel b&c, 32 threads:
  Real time             =    3.03 sec. (420.47 ticks)
  Sync time (average)   =    1.05 sec.
  Wait time (average)   =    0.00 sec.
                          ------------
Total (root+branch&cut) =    5.36 sec. (2083.15 ticks)

Solution pool: 5 solutions saved.

MIP - Integer optimal, tolerance (0.01/1e-06):  Objective =  3.0720448750e+03
Current MIP best bound =  3.1018447741e+03 (gap = 29.7999, 0.97%)
Solution time =    5.39 sec.  Iterations = 10179  Nodes = 733 (60)
Deterministic time = 2083.31 ticks  (386.44 ticks/sec)

CPLEX> Incumbent solution written to file 'C:\Users\llavin\Desktop\test826\logs\tmppx2jueq0.cplex.sol'.
CPLEX> NOTE: no warmstart specified for MIP iteration, default behavior is true
NOTE: resolving with all competitive generators using storage-only solution to warmstart
Solving...

Welcome to IBM(R) ILOG(R) CPLEX(R) Interactive Optimizer 12.9.0.0
  with Simplex, Mixed Integer & Barrier Optimizers
5725-A06 5725-A29 5724-Y48 5724-Y49 5724-Y54 5724-Y55 5655-Y21
Copyright IBM Corp. 1988, 2019.  All Rights Reserved.

Type 'help' for a list of available commands.
Type 'help' followed by a command name for more
information on commands.

CPLEX> Logfile 'cplex.log' closed.
Logfile 'C:\Users\llavin\Desktop\test826\logs\tmp37apu4vs.cplex.log' open.
CPLEX> New value for parallel optimization mode: -1
CPLEX> New value for emphasis for MIP optimization: 1
CPLEX> New value for mixed integer optimality gap tolerance: 0.01
CPLEX> New value for integrality tolerance: 1e-12
CPLEX> New value for deterministic time limit in ticks: 75000
CPLEX> Problem 'C:\Users\llavin\Desktop\test826\logs\tmp2bshnap5.pyomo.lp' read.
Read time = 0.22 sec. (13.94 ticks)
CPLEX> MIP start file 'C:\Users\llavin\Desktop\test826\logs\tmpgjbbjmb7.cplex.mst' read.
CPLEX> Problem name         : C:\Users\llavin\Desktop\test826\logs\tmp2bshnap5.pyomo.lp
Objective sense      : Maximize
Variables            :   54529  [Nneg: 1,  Box: 22724,  Free: 4464,
                                 Binary: 27340]
Objective nonzeros   :    9670
Linear constraints   :  123253  [Less: 41346,  Greater: 59096,  Equal: 22811]
  Nonzeros           :  293283
  RHS nonzeros       :   67485

Variables            : Min LB: -5000.000        Max UB: 1000000.       
Objective nonzeros   : Min   : 0.008333333      Max   : 753.1500       
Linear constraints   :
  Nonzeros           : Min   : 0.008333333      Max   : 1000000.       
  RHS nonzeros       : Min   : 0.008333333      Max   : 1000000.       
CPLEX> CPXPARAM_Parallel                                -1
CPXPARAM_Emphasis_MIP                            1
CPXPARAM_DetTimeLimit                            75000
CPXPARAM_MIP_Tolerances_MIPGap                   0.01
CPXPARAM_MIP_Tolerances_Integrality              9.9999999999999998e-13
Warning:  No solution found from 1 MIP starts.
Retaining values of one MIP start for possible repair.
Tried aggregator 4 times.
MIP Presolve eliminated 88705 rows and 19678 columns.
MIP Presolve added 3395 rows and 0 columns.
MIP Presolve modified 24900 coefficients.
Aggregator did 13009 substitutions.
Reduced MIP has 24934 rows, 21283 columns, and 71169 nonzeros.
Reduced MIP has 8402 binaries, 0 generals, 0 SOSs, and 0 indicators.
Presolve time = 0.31 sec. (194.16 ticks)
Probing fixed 372 vars, tightened 4093 bounds.
Probing time = 0.06 sec. (18.91 ticks)
Tried aggregator 2 times.
MIP Presolve eliminated 840 rows and 745 columns.
MIP Presolve modified 3027 coefficients.
Aggregator did 32 substitutions.
Reduced MIP has 24062 rows, 20506 columns, and 68643 nonzeros.
Reduced MIP has 8030 binaries, 0 generals, 0 SOSs, and 0 indicators.
Presolve time = 0.11 sec. (89.86 ticks)
Probing fixed 0 vars, tightened 323 bounds.
Probing time = 0.13 sec. (23.04 ticks)
Clique table members: 44652.
MIP emphasis: integer feasibility.
MIP search method: dynamic search.
Parallel mode: opportunistic, using up to 32 threads.
Root relaxation solution time = 0.47 sec. (650.72 ticks)

        Nodes                                         Cuts/
   Node  Left     Objective  IInf  Best Integer    Best Bound    ItCnt     Gap

      0     0   155479.4599   353                 155479.4599     5845         
      0     0   153739.4119   180                   Cuts: 270     6117         
      0     0   153084.2873   166                    Cuts: 72     6239         
      0     0   152736.7948   161                    Cuts: 48     6277         
Repair heuristic found nothing.
      0    19   147709.9052   150                     Cuts: 6     6443         
Elapsed time = 4.33 sec. (1919.73 ticks, tree = 0.02 MB, solutions = 0)
    599   374   133889.3636   125                 150597.9831     9695         
    988   783    infeasible                       150597.9831    18050         
   1553  1096    71378.0357   125                 150597.9831    27934         
   2053  1581     1898.4261   129                 150597.9831    40313         
   2728  2108    49726.5197   136                 150597.9831    58828         
   3405  2320    52886.4348    88                 150597.9831    63971         
   4034  2684    51360.0887    88                 150597.9831    75723         
   4639  3361    infeasible                       150597.9831    97008         
   5327  3601    infeasible                       150597.9831   103997         
   7676  5217   107943.2611   105                 150597.9831   153728         
Elapsed time = 21.09 sec. (5022.53 ticks, tree = 121.48 MB, solutions = 0)
  10195  7678    85399.7700   109                 150597.9831   228721         
  12562  9351   117445.2774   116                 150597.9831   284121         
  13760 10763    infeasible                       120281.4914   348020         
  15878  1052   -20806.4841    94                 116369.9482   374696         
  18807  2895    infeasible                       116369.9482   439738         
  21589  4467    67900.5429   128                 116369.9482   483468         
  24098  6011    infeasible                       116369.9482   573076         
  26699  6663    infeasible                       116369.9482   606968         
  29618  8500    15483.6387    74                 116369.9482   707504         
  32458  9046    15348.5326    57                 116369.9482   746237         
Elapsed time = 87.41 sec. (16560.51 ticks, tree = 132.65 MB, solutions = 0)
  35296 10504    37397.5257    30                 116369.9482   844473         
  38174 10805    21331.9482    30                 116369.9482   864082         
  40648 12721    36883.0880    26                 116369.9482   954360         
  43029 13993    37394.3817    18                 116369.9482  1011280         
  45691 14632    infeasible                       116369.9482  1048822         
  48626 15374    37266.2472    21                 116369.9482  1095382         
  51250 15951    infeasible                       116369.9482  1135584         
  53477 17906    -1659.1378    46                 116369.9482  1294243         
  55623 18608    infeasible                       116369.9482  1372068         
  57422 19377    infeasible                       116369.9482  1454546         
Elapsed time = 170.38 sec. (26102.48 ticks, tree = 211.42 MB, solutions = 0)
  59735 19919    23984.3569    18                 116369.9482  1506157         
  62450 21432   -16766.4814    45                 116369.9482  1599808         
  65287 21365    -5663.6631    24                 116369.9482  1595627         
  68060 22921    infeasible                       116369.9482  1678833         
  70610 24519    10119.7310    80                 116369.9482  1772815         
  72768 24569    infeasible                       116369.9482  1779831         
  73336 25011     8486.0734    75                 116369.9482  1814161         
  73378 26867    infeasible                       116369.9482  1947068         
  74461   563    infeasible                       116369.9482  1962362         
  75854  1367    43994.7594   143                 116369.9482  1983831         
Elapsed time = 203.88 sec. (36910.73 ticks, tree = 9.02 MB, solutions = 0)
  77400  2228    72554.9681   163                 116369.9482  2010756         
  78920  3650    infeasible                       116369.9482  2050883         
  80461  4125    68679.3520   106                 116369.9482  2065850         
  81877  4953    57295.7054   122                 116369.9482  2094344         
  83270  5711    61978.1078   112                 116369.9482  2127977         
  84781  6496    69554.7332   137                 116369.9482  2157025         
  86125  6961    16750.9765   136                 116369.9482  2174902         
  87422  8204    34767.9969   106                 116369.9482  2235117         
  88789  8241     4583.9747   139                 116369.9482  2237140         
  90103  9384    52619.4132   102                 116369.9482  2290932         
Elapsed time = 235.84 sec. (46451.65 ticks, tree = 66.74 MB, solutions = 0)
  91442 10129    36117.5591   109                 116369.9482  2331705         
  92705  9955    infeasible                       116369.9482  2318112         
  94008 10760   -36294.5988   134                 116369.9482  2368677         
  95506 11136    20400.3069    83                 116369.9482  2392210         
  97095 11914    33845.2960    79                 116369.9482  2437759         
  98692 12299     7329.2248    88                 116369.9482  2456327         
 100376 13778    infeasible                       116369.9482  2522117         
 102006 13313    32380.5721    97                 116369.9482  2500469         
 103728 14021    infeasible                       116369.9482  2537604         
 105482 14480    infeasible                       116369.9482  2563295         
Elapsed time = 272.64 sec. (55995.71 ticks, tree = 118.05 MB, solutions = 0)
 107234 16156    69790.7437   133                 116369.9482  2642390         
 108546 16381    26381.1208    45                 116369.9482  2651565         
 109600 15528    33679.3119   109                 116369.9482  2618056         
 110369 15738     2180.2303   110                 116369.9482  2623318         
 110887 16496    24790.2852    42                 116369.9482  2651024         
 111272 15886    17397.4270   115                 116369.9482  2630532         
 111577 16647    26740.2487    42                 116369.9482  2652476         
 111884 16700    25770.1416    47                 116369.9482  2653189         
 112169 16748    25717.1052    44                 116369.9482  2653969         
 112469 16406    51717.5114   147                 116369.9482  2652368         
Elapsed time = 285.92 sec. (65560.11 ticks, tree = 131.94 MB, solutions = 0)
 112684 16889    infeasible                       116369.9482  2655572         
 112858 16742   -99843.7507   104                 116369.9482  2665023         
 112937 16229    infeasible                       116369.9482  2647097         
 112955 16657    infeasible                       116369.9482  2660184         
 112967 16496    infeasible                       116369.9482  2658039         
 112975 16672    infeasible                       116369.9482  2663102         
 112981 16675    infeasible                       116369.9482  2663401         
 112985 16672    infeasible                       116369.9482  2663129         

Clique cuts applied:  1
Cover cuts applied:  29
Implied bound cuts applied:  4
Flow cuts applied:  133
Mixed integer rounding cuts applied:  12
Gomory fractional cuts applied:  12

Root node processing (before b&c):
  Real time             =    2.67 sec. (1874.94 ticks)
Parallel b&c, 32 threads:
  Real time             =  285.91 sec. (73876.68 ticks)
  Sync time (average)   =    2.09 sec.
  Wait time (average)   =    0.48 sec.
                          ------------
Total (root+branch&cut) =  288.58 sec. (75751.61 ticks)


MIP - Deterministic time limit exceeded, no integer solution.
Current MIP best bound =  1.1636994820e+05 (gap is infinite)
Solution time =  288.61 sec.  Iterations = 2786167  Nodes = 112988 (20456)
Deterministic time = 75751.77 ticks  (262.47 ticks/sec)

CPLEX> CPLEX Error  1217: No solution exists.
No file written.
CPLEX> gap is infinite, so writing 0
Exporting results... 
